# Objective value = 2.9158181822976462e+02
x[0] 1
x[1] 1
x[2] 1
x[3] 1
x[4] 0
x[5] 1
x[6] 0
x[7] 0
x[8] 1
x[9] 0
x[10] 0
x[11] 1
x[12] 0
x[13] 0
x[14] 1
x[15] 0
x[16] 1
x[17] 0
x[18] 0
x[19] 1
x[20] 0
x[21] 1
x[22] 0
x[23] 1
x[24] 1
x[25] 1
x[26] 0
x[27] 0
x[28] 0
x[29] 0
x[30] 0
x[31] 0
x[32] 0
x[33] 0
x[34] 0
x[35] 0
x[36] 1
x[37] 1
x[38] 0
x[39] 1
x[40] 0
x[41] 0
x[42] 0
x[43] 1
x[44] 1
x[45] 1
x[46] 0
x[47] 0
x[48] 0
x[49] 1
x[50] 0
x[51] 0
x[52] 1
x[53] 1
x[54] 1
x[55] 0
x[56] 1
x[57] 1
x[58] 1
x[59] 0
x[60] 1
x[61] 1
x[62] 0
x[63] 1
x[64] 1
x[65] 0
x[66] 0
x[67] 1
x[68] 1
x[69] 1
x[70] 0
x[71] 0
x[72] 0
x[73] 1
x[74] 1
x[75] 1
x[76] 1
x[77] 0
x[78] 0
x[79] 1
x[80] 0
x[81] 1
x[82] 1
x[83] 0
x[84] 0
x[85] 0
x[86] 0
x[87] 0
x[88] 1
x[89] 0
x[90] 1
x[91] 1
x[92] 1
x[93] 1
x[94] 1
x[95] 0
x[96] 1
x[97] 1
x[98] 1
x[99] 0
x[100] 1
x[101] 1
x[102] 1
x[103] 0
x[104] 1
x[105] 0
x[106] 1
x[107] 0
x[108] 1
x[109] 1
x[110] 0
x[111] 0
x[112] 1
x[113] 0
x[114] 0
x[115] 0
x[116] 0
x[117] 0
x[118] 0
x[119] 0
x[120] 1
x[121] 1
x[122] 0
x[123] 1
x[124] 0
x[125] 0
x[126] 0
x[127] 1
x[128] 0
x[129] 1
x[130] 1
x[131] 0
x[132] 1
x[133] 0
x[134] 0
x[135] 1
x[136] 1
x[137] 0
x[138] 0
x[139] 0
x[140] 1
x[141] 1
x[142] 0
x[143] 0
x[144] 1
x[145] 1
x[146] 1
x[147] 1
x[148] 1
x[149] 1
x[150] 1
x[151] 0
x[152] 0
x[153] 0
x[154] 1
x[155] 0
x[156] 0
x[157] 0
x[158] 0
x[159] 1
x[160] 0
x[161] 0
x[162] 1
x[163] 0
x[164] 0
x[165] 0
x[166] 1
x[167] 1
x[168] 1
x[169] 1
x[170] 0
x[171] 0
x[172] 1
x[173] 0
x[174] 1
x[175] 1
x[176] 0
x[177] 1
x[178] 1
x[179] 0
x[180] 0
x[181] 0
x[182] 1
x[183] 0
x[184] 0
x[185] 0
x[186] 0
x[187] 1
x[188] 1
x[189] 0
x[190] 1
x[191] 0
x[192] 0
x[193] 0
x[194] 1
x[195] 1
x[196] 0
x[197] 0
x[198] 0
x[199] 0
x[200] 0
x[201] 0
x[202] 0
x[203] 0
x[204] 0
x[205] 0
x[206] 0
x[207] 1
x[208] 1
x[209] 0
x[210] 1
x[211] 1
x[212] 0
x[213] 0
x[214] 0
x[215] 0
x[216] 1
x[217] 1
x[218] 1
x[219] 0
x[220] 0
x[221] 0
x[222] 1
x[223] 0
x[224] 0
x[225] 0
x[226] 0
x[227] 0
x[228] 1
x[229] 1
x[230] 1
x[231] 1
x[232] 1
x[233] 0
x[234] 1
x[235] 1
x[236] 0
x[237] 1
x[238] 1
x[239] 0
x[240] 1
x[241] 0
x[242] 1
x[243] 0
x[244] 0
x[245] 1
x[246] 1
x[247] 0
x[248] 1
x[249] 0
x[250] 0
x[251] 1
x[252] 1
x[253] 0
x[254] 1
x[255] 1
x[256] 0
x[257] 1
x[258] 0
x[259] 0
x[260] 1
x[261] 1
x[262] 0
x[263] 1
x[264] 0
x[265] 0
x[266] 0
x[267] 0
x[268] 0
x[269] 0
x[270] 1
x[271] 0
x[272] 0
x[273] 0
x[274] 1
x[275] 1
x[276] 1
x[277] 1
x[278] 1
x[279] 1
x[280] 0
x[281] 0
x[282] 1
x[283] 0
x[284] 0
x[285] 0
x[286] 0
x[287] 0
x[288] 1
x[289] 1
x[290] 1
x[291] 0
x[292] 0
x[293] 0
x[294] 1
x[295] 0
x[296] 1
x[297] 0
x[298] 1
x[299] 0
x[300] 1
x[301] 0
x[302] 0
x[303] 0
x[304] 1
x[305] 0
x[306] 1
x[307] 1
x[308] 1
x[309] 1
x[310] 0
x[311] 1
x[312] 0
x[313] 1
x[314] 0
x[315] 1
x[316] 0
x[317] 0
x[318] 0
x[319] 0
x[320] 1
x[321] 0
x[322] 1
x[323] 0
x[324] 1
x[325] 1
x[326] 0
x[327] 1
x[328] 1
x[329] 1
x[330] 1
x[331] 1
x[332] 1
x[333] 0
x[334] 0
x[335] 0
x[336] 0
x[337] 0
x[338] 0
x[339] 0
x[340] 0
x[341] 1
x[342] 0
x[343] 0
x[344] 1
x[345] 1
x[346] 1
x[347] 0
x[348] 0
x[349] 0
x[350] 0
x[351] 0
x[352] 0
x[353] 0
x[354] 1
x[355] 1
x[356] 0
x[357] 0
x[358] 0
x[359] 1
x[360] 1
x[361] 1
x[362] 1
x[363] 0
x[364] 1
x[365] 0
x[366] 0
x[367] 0
x[368] 1
x[369] 1
x[370] 1
x[371] 0
x[372] 0
x[373] 0
x[374] 1
x[375] 1
x[376] 0
x[377] 1
x[378] 0
x[379] 1
x[380] 0
x[381] 1
x[382] 1
x[383] 0
x[384] 0
x[385] 0
x[386] 0
x[387] 1
x[388] 0
x[389] 0
x[390] 1
x[391] 0
x[392] 0
x[393] 1
x[394] 0
x[395] 1
x[396] 1
x[397] 0
x[398] 1
x[399] 0
x[400] 1
x[401] 1
x[402] 0
x[403] 0
x[404] 1
x[405] 0
x[406] 0
x[407] 1
x[408] 0
x[409] 1
x[410] 1
x[411] 0
x[412] 0
x[413] 1
x[414] 1
x[415] 1
x[416] 1
x[417] 1
x[418] 0
x[419] 1
x[420] 0
x[421] 1
x[422] 1
x[423] 1
x[424] 0
x[425] 0
x[426] 0
x[427] 1
x[428] 0
x[429] 1
x[430] 1
x[431] 1
x[432] 1
x[433] 0
x[434] 1
x[435] 0
x[436] 0
x[437] 0
x[438] 1
x[439] 1
x[440] 1
x[441] 1
x[442] 1
x[443] 0
x[444] 0
x[445] 0
x[446] 0
x[447] 1
x[448] 0
x[449] 1
x[450] 1
x[451] 1
x[452] 0
x[453] 1
x[454] 0
x[455] 1
x[456] 0
x[457] 1
x[458] 1
x[459] 1
x[460] 0
x[461] 1
x[462] 0
x[463] 1
x[464] 1
x[465] 0
x[466] 1
x[467] 0
x[468] 0
x[469] 1
x[470] 1
x[471] 1
x[472] 1
x[473] 0
x[474] 1
x[475] 1
x[476] 1
x[477] 1
x[478] 0
x[479] 0
x[480] 1
x[481] 1
x[482] 1
x[483] 1
x[484] 1
x[485] 0
x[486] 1
x[487] 1
x[488] 0
x[489] 1
x[490] 0
x[491] 0
x[492] 0
x[493] 1
x[494] 0
x[495] 1
x[496] 0
x[497] 0
x[498] 1
x[499] 0
x[500] 0
x[501] 0
x[502] 0
x[503] 1
x[504] 0
x[505] 0
x[506] 0
x[507] 0
x[508] 0
x[509] 0
x[510] 0
x[511] 1
x[512] 0
x[513] 1
x[514] 0
x[515] 0
x[516] 1
x[517] 1
x[518] 1
x[519] 0
x[520] 0
x[521] 1
x[522] 1
x[523] 0
x[524] 1
x[525] 0
x[526] 0
x[527] 1
x[528] 1
x[529] 1
x[530] 1
x[531] 0
x[532] 0
x[533] 0
x[534] 0
x[535] 1
x[536] 0
x[537] 1
x[538] 0
x[539] 0
x[540] 1
x[541] 0
x[542] 1
x[543] 1
x[544] 0
x[545] 0
x[546] 1
x[547] 1
x[548] 1
x[549] 1
x[550] 1
x[551] 0
x[552] 1
x[553] 1
x[554] 0
x[555] 1
x[556] 0
x[557] 0
x[558] 0
x[559] 0
x[560] 0
x[561] 0
x[562] 0
x[563] 0
x[564] 1
x[565] 0
x[566] 0
x[567] 1
x[568] 0
x[569] 1
x[570] 0
x[571] 0
x[572] 0
x[573] 1
x[574] 1
x[575] 1
x[576] 1
x[577] 0
x[578] 0
x[579] 1
x[580] 1
x[581] 0
x[582] 1
x[583] 1
x[584] 1
x[585] 0
x[586] 0
x[587] 0
x[588] 1
x[589] 1
x[590] 1
x[591] 1
x[592] 1
x[593] 0
x[594] 1
x[595] 1
x[596] 1
x[597] 0
x[598] 0
x[599] 1
x[600] 1
x[601] 1
x[602] 1
x[603] 1
x[604] 0
x[605] 1
x[606] 0
x[607] 0
x[608] 0
x[609] 0
x[610] 0
x[611] 1
x[612] 0
x[613] 1
x[614] 0
x[615] 1
x[616] 1
x[617] 0
x[618] 0
x[619] 1
x[620] 1
x[621] 1
x[622] 0
x[623] 1
x[624] 1
x[625] 0
x[626] 1
x[627] 0
x[628] 1
x[629] 0
x[630] 1
x[631] 1
x[632] 1
x[633] 1
x[634] 0
x[635] 1
x[636] 1
x[637] 0
x[638] 0
x[639] 1
x[640] 0
x[641] 1
x[642] 0
x[643] 1
x[644] 1
x[645] 0
x[646] 1
x[647] 0
x[648] 0
x[649] 1
x[650] 1
x[651] 1
x[652] 0
x[653] 0
x[654] 0
x[655] 1
x[656] 0
x[657] 0
x[658] 0
x[659] 0
x[660] 1
x[661] 1
x[662] 0
x[663] 0
x[664] 1
x[665] 1
x[666] 0
x[667] 1
x[668] 1
x[669] 0
x[670] 1
x[671] 0
x[672] 0
x[673] 0
x[674] 0
x[675] 1
x[676] 0
x[677] 0
x[678] 0
x[679] 1
x[680] 0
x[681] 1
x[682] 0
x[683] 1
x[684] 0
x[685] 1
x[686] 0
x[687] 0
x[688] 0
x[689] 1
x[690] 1
x[691] 0
x[692] 0
x[693] 0
x[694] 0
x[695] 1
x[696] 1
x[697] 0
x[698] 1
x[699] 0
x[700] 1
x[701] 1
x[702] 1
x[703] 0
x[704] 1
x[705] 0
x[706] 0
x[707] 1
x[708] 0
x[709] 0
x[710] 0
x[711] 0
x[712] 1
x[713] 0
x[714] 0
x[715] 1
x[716] 1
x[717] 0
x[718] 1
x[719] 1
x[720] 0
x[721] 1
x[722] 1
x[723] 0
x[724] 0
x[725] 1
x[726] 0
x[727] 1
x[728] 0
x[729] 0
x[730] 1
x[731] 0
x[732] 0
x[733] 0
x[734] 1
x[735] 0
x[736] 0
x[737] 0
x[738] 0
x[739] 1
x[740] 1
x[741] 0
x[742] 1
x[743] 1
x[744] 1
x[745] 0
x[746] 1
x[747] 0
x[748] 0
x[749] 0
x[750] 1
x[751] 1
x[752] 1
x[753] 0
x[754] 1
x[755] 0
x[756] 0
x[757] 1
x[758] 1
x[759] 0
x[760] 0
x[761] 0
x[762] 0
x[763] 1
x[764] 0
x[765] 1
x[766] 0
x[767] 1
x[768] 0
x[769] 1
x[770] 0
x[771] 0
x[772] 0
x[773] 1
x[774] 0
x[775] 0
x[776] 0
x[777] 1
x[778] 0
x[779] 1
x[780] 1
x[781] 0
x[782] 0
x[783] 0
x[784] 1
x[785] 1
x[786] 1
x[787] 0
x[788] 1
x[789] 1
x[790] 1
x[791] 1
x[792] 1
x[793] 1
x[794] 1
x[795] 0
x[796] 0
x[797] 1
x[798] 0
x[799] 0
x[800] 0
x[801] 0
x[802] 1
x[803] 1
x[804] 0
x[805] 1
x[806] 0
x[807] 1
x[808] 1
x[809] 1
x[810] 1
x[811] 1
x[812] 1
x[813] 1
x[814] 0
x[815] 1
x[816] 1
x[817] 0
x[818] 1
x[819] 1
x[820] 1
x[821] 0
x[822] 1
x[823] 1
x[824] 1
x[825] 0
x[826] 0
x[827] 0
x[828] 1
x[829] 1
x[830] 1
x[831] 0
x[832] 0
x[833] 1
x[834] 1
x[835] 1
x[836] 1
x[837] 1
x[838] 1
x[839] 1
x[840] 0
x[841] 0
x[842] 1
x[843] 1
x[844] 0
x[845] 0
x[846] 0
x[847] 0
x[848] 1
x[849] 1
x[850] 0
x[851] 1
x[852] 0
x[853] 0
x[854] 0
x[855] 0
x[856] 0
x[857] 0
x[858] 1
x[859] 0
x[860] 1
x[861] 0
x[862] 1
x[863] 0
x[864] 0
x[865] 1
x[866] 1
x[867] 1
x[868] 1
x[869] 0
x[870] 1
x[871] 0
x[872] 0
x[873] 0
x[874] 0
x[875] 0
x[876] 0
x[877] 0
x[878] 1
x[879] 1
x[880] 1
x[881] 1
x[882] 1
x[883] 0
x[884] 0
x[885] 1
x[886] 0
x[887] 1
x[888] 1
x[889] 0
x[890] 1
x[891] 1
x[892] 0
x[893] 1
x[894] 1
x[895] 1
x[896] 1
x[897] 0
x[898] 1
x[899] 0
x[900] 0
x[901] 0
x[902] 0
x[903] 0
x[904] 0
x[905] 1
x[906] 0
x[907] 1
x[908] 1
x[909] 0
x[910] 1
x[911] 0
x[912] 0
x[913] 0
x[914] 0
x[915] 0
x[916] 1
x[917] 0
x[918] 0
x[919] 1
x[920] 1
x[921] 0
x[922] 0
x[923] 1
x[924] 0
x[925] 0
x[926] 0
x[927] 0
x[928] 1
x[929] 1
x[930] 1
x[931] 0
x[932] 0
x[933] 0
x[934] 0
x[935] 1
x[936] 1
x[937] 0
x[938] 1
x[939] 0
x[940] 0
x[941] 1
x[942] 1
x[943] 1
x[944] 1
x[945] 1
x[946] 1
x[947] 1
x[948] 0
x[949] 0
x[950] 0
x[951] 0
x[952] 1
x[953] 0
x[954] 0
x[955] 1
x[956] 1
x[957] 0
x[958] 0
x[959] 1
x[960] 0
x[961] 1
x[962] 0
x[963] 1
x[964] 0
x[965] 1
x[966] 0
x[967] 1
x[968] 0
x[969] 1
x[970] 0
x[971] 1
x[972] 0
x[973] 1
x[974] 1
x[975] 0
x[976] 0
x[977] 1
x[978] 1
x[979] 1
x[980] 0
x[981] 1
x[982] 1
x[983] 1
x[984] 0
x[985] 0
x[986] 0
x[987] 0
x[988] 0
x[989] 1
x[990] 0
x[991] 1
x[992] 0
x[993] 1
x[994] 1
x[995] 0
x[996] 1
x[997] 1
x[998] 0
x[999] 1
